
List of user-set options:

                                    Name   Value                used
                           compl_inf_tol = 1                     yes
                         constr_viol_tol = 1                     yes
                            dual_inf_tol = 1000                  yes
                           linear_solver = ma97                  yes
                              ma86_small = 1e-30                  no
                                  ma86_u = 0.0001                 no
                              ma97_order = best                  yes
                              ma97_small = 1e-30                 yes
                            ma97_switch1 = at_start              yes
                            ma97_switch2 = od_hd_reuse           yes
                                  ma97_u = 1e-06                 yes
                               ma97_umax = 0.5                   yes
                                max_iter = 1000                  yes
                    max_refinement_steps = 20                    yes
                    min_refinement_steps = 5                     yes
                                 mu_init = 1e-06                 yes
           mu_superlinear_decrease_power = 1.25                  yes
                   nlp_scaling_min_value = 1e-08                 yes
                        option_file_name = Preset_Case_302_pf.opt  yes
                             output_file = ./tmp/Preset_Case_302_pf.output  yes
                      print_user_options = yes                   yes
        required_infeasibility_reduction = 1                      no
                                     tol = 1e-08                 yes
                   warm_start_bound_frac = 1e-20                 yes
                   warm_start_bound_push = 1e-20                 yes
                   warm_start_init_point = yes                   yes
              warm_start_mult_bound_push = 1e-20                 yes
                warm_start_mult_init_max = 1e+40                 yes
             warm_start_slack_bound_frac = 1e-20                 yes
             warm_start_slack_bound_push = 1e-20                 yes

******************************************************************************
This program contains Ipopt, a library for large-scale nonlinear optimization.
 Ipopt is released as open source code under the Eclipse Public License (EPL).
         For more information visit http://projects.coin-or.org/Ipopt
******************************************************************************

This is Ipopt version 3.12.10, running with linear solver ma97.

Number of nonzeros in equality constraint Jacobian...:   123443
Number of nonzeros in inequality constraint Jacobian.:      213
Number of nonzeros in Lagrangian Hessian.............:    49069

Total number of variables............................:    31591
                     variables with only lower bounds:    12912
                variables with lower and upper bounds:    15130
                     variables with only upper bounds:        0
Total number of equality constraints.................:    31483
Total number of inequality constraints...............:       25
        inequality constraints with only lower bounds:        4
   inequality constraints with lower and upper bounds:        0
        inequality constraints with only upper bounds:       21

iter    objective    inf_pr   inf_du lg(mu)  ||d||  lg(rg) alpha_du alpha_pr  ls
   0 -5.3902063e+00 4.05e-03 1.02e+00  -6.0 0.00e+00    -  0.00e+00 0.00e+00   0
   1 -5.3896486e+00 1.22e-01 1.02e+00  -6.0 3.44e+05    -  9.58e-05 8.34e-05h  5
   2 -5.3912367e+00 1.22e-01 5.13e+01  -6.0 3.65e+03    -  2.25e-01 1.95e-03h  1
   3 -5.5260503e+00 1.10e+00 3.66e+02  -6.0 3.64e+03    -  1.63e-01 1.66e-01f  1
   4 -5.6478613e+00 2.33e+00 6.60e+02  -6.0 2.98e+03    -  4.45e-01 2.10e-01h  1
   5 -5.8161732e+00 7.56e+00 1.81e+03  -6.0 3.14e+03    -  1.24e-01 5.26e-01h  1
   6 -5.7778817e+00 1.04e-01 1.27e+02  -6.0 5.88e+00  -4.0 8.67e-02 1.00e+00h  1
   7 -5.8715173e+00 3.48e+00 4.11e+02  -6.0 9.29e+02    -  1.51e-02 4.40e-01h  1
   8 -5.8733885e+00 5.12e+00 4.94e+02  -6.0 1.56e+04    -  2.24e-02 3.15e-02h  1
   9 -5.8691168e+00 2.15e+00 1.06e+04  -6.0 2.84e+02    -  1.02e-01 1.00e+00h  1
iter    objective    inf_pr   inf_du lg(mu)  ||d||  lg(rg) alpha_du alpha_pr  ls
  10 -5.8891284e+00 8.90e+00 8.08e+03  -6.0 2.91e+03    -  4.38e-02 2.38e-01h  1
  11 -5.9229225e+00 1.62e+00 1.88e+02  -6.0 3.00e+02  -4.5 1.36e-03 9.76e-01h  1
  12 -5.8915762e+00 1.85e-03 1.72e+00  -6.0 6.66e+00  -5.0 1.00e+00 1.00e+00h  1
  13 -5.8971928e+00 3.39e-02 1.10e+01  -6.0 1.86e+01  -5.4 9.90e-01 1.00e+00h  1
  14 -5.9036756e+00 6.40e-02 2.02e+01  -6.0 3.44e+01  -5.9 1.00e+00 1.00e+00h  1
  15 -5.9077557e+00 1.08e-01 1.18e+01  -6.0 4.96e+01  -6.4 1.89e-01 1.00e+00h  1
  16 -5.9147182e+00 2.22e-01 1.60e+01  -6.0 8.00e+01  -6.9 1.00e+00 9.92e-01h  1
  17 -5.9287598e+00 1.34e+00 3.21e+01  -6.0 2.15e+02  -7.3 1.00e+00 9.77e-01h  1
  18 -5.9411967e+00 5.21e+00 5.92e+03  -6.0 1.87e+03    -  2.04e-01 8.55e-01h  1
  19 -5.9408925e+00 1.42e+00 7.25e+02  -6.0 2.24e+02  -6.9 4.50e-01 9.73e-01h  1
iter    objective    inf_pr   inf_du lg(mu)  ||d||  lg(rg) alpha_du alpha_pr  ls
  20 -5.9510565e+00 1.18e+00 6.06e+03  -6.0 2.50e+02    -  5.92e-01 7.94e-01h  1
  21 -5.9534520e+00 1.00e+00 6.52e+04  -6.0 2.15e+02    -  1.00e+00 1.86e-01h  1
  22 -5.9666193e+00 1.28e+00 1.29e+04  -6.0 2.11e+02    -  6.63e-01 1.00e+00h  1
  23 -5.9727334e+00 9.79e-01 2.15e+05  -6.0 2.06e+02    -  1.00e+00 3.50e-01h  1
  24 -5.9918336e+00 1.34e+00 1.56e+05  -6.0 2.18e+02    -  5.35e-01 1.00e+00h  1
  25 -5.9972862e+00 1.20e+00 1.18e+06  -6.0 3.43e+02    -  7.60e-01 1.77e-01h  1
  26r-5.9972862e+00 1.20e+00 1.00e+03   0.1 0.00e+00    -  0.00e+00 1.31e-07R  2
  27r-6.0177036e+00 1.20e+00 1.00e+03   0.1 1.15e+04    -  5.25e-06 1.54e-06f  1
  28 -6.0173397e+00 1.18e+00 1.75e+05  -6.0 9.14e+00    -  1.25e-01 1.68e-02h  1
  29 -6.0059148e+00 8.57e-01 3.23e+06  -6.0 8.78e+00    -  1.68e-02 2.76e-01h  1
iter    objective    inf_pr   inf_du lg(mu)  ||d||  lg(rg) alpha_du alpha_pr  ls
  30 -5.9933176e+00 2.31e-01 8.65e+05  -6.0 8.55e+00    -  4.64e-01 7.32e-01h  1
  31 -5.9981770e+00 1.91e-01 7.17e+05  -6.0 5.84e+00    -  6.50e-01 1.71e-01h  1
  32 -5.9947996e+00 3.33e-04 9.24e+00  -6.0 2.76e+00    -  9.43e-01 1.00e+00h  1
  33 -5.9952663e+00 3.18e-04 1.66e+01  -6.0 8.46e+00    -  9.33e-01 1.66e-01h  1
  34 -5.9978375e+00 2.01e-02 7.40e+00  -6.0 1.16e+01  -5.6 9.79e-01 1.00e+00f  1
  35 -5.9990672e+00 1.11e-01 4.09e-01  -6.0 2.71e+01  -6.1 9.91e-01 1.00e+00h  1
  36 -6.0035929e+00 4.60e-01 1.46e+01  -6.0 8.04e+02    -  2.29e-01 7.93e-02h  1
  37 -6.0073547e+00 3.73e-01 2.48e+01  -6.0 2.42e+02    -  9.83e-01 2.65e-01h  1
  38 -6.0124369e+00 5.94e-01 1.08e+01  -6.0 3.29e+02    -  7.60e-02 3.55e-01h  1
  39 -6.0101692e+00 1.55e-01 2.90e+02  -6.0 5.43e+01    -  1.00e+00 8.49e-01h  1
iter    objective    inf_pr   inf_du lg(mu)  ||d||  lg(rg) alpha_du alpha_pr  ls
  40 -6.0097096e+00 1.20e-02 2.22e+02  -6.0 1.97e+01    -  8.70e-01 1.00e+00h  1
  41 -6.0096045e+00 2.34e-04 2.95e-01  -6.0 2.39e+00    -  1.00e+00 1.00e+00h  1
  42 -6.0095959e+00 7.44e-06 3.55e-03  -6.0 4.26e-01    -  1.00e+00 1.00e+00h  1
  43 -6.0095957e+00 1.86e-09 4.25e-07  -6.0 6.75e-03    -  1.00e+00 1.00e+00h  1
  44 -6.0097225e+00 2.84e+00 1.48e+01  -7.5 5.51e+02    -  8.12e-01 7.77e-01h  1
  45 -6.0097123e+00 6.00e-01 9.46e+00  -7.5 1.36e+02    -  1.00e+00 8.70e-01h  1
  46 -6.0097079e+00 4.99e-03 3.11e-02  -7.5 1.71e+01    -  1.00e+00 1.00e+00h  1
  47 -6.0097078e+00 2.55e-08 3.28e-08  -7.5 4.50e-02    -  1.00e+00 1.00e+00h  1
  48 -6.0097094e+00 3.85e-03 7.13e-01  -9.0 1.83e+01    -  9.26e-01 8.48e-01h  1
  49 -6.0097096e+00 1.24e-04 3.29e-01  -9.0 2.78e+00    -  9.19e-01 1.00e+00h  1
iter    objective    inf_pr   inf_du lg(mu)  ||d||  lg(rg) alpha_du alpha_pr  ls
  50 -6.0097096e+00 2.90e-10 3.90e-09  -9.0 1.57e-03    -  1.00e+00 1.00e+00h  1

Number of Iterations....: 50

                                   (scaled)                 (unscaled)
Objective...............:  -4.6950856439165749e+00   -6.0097096242132162e+00
Dual infeasibility......:   3.9023115224312283e-09    4.9949587487119726e-09
Constraint violation....:   2.8961036195075673e-10    2.8961036195075673e-10
Complementarity.........:   1.2865805247398716e-09    1.6468230716670356e-09
Overall NLP error.......:   3.9023115224312283e-09    4.9949587487119726e-09


Number of objective function evaluations             = 58
Number of objective gradient evaluations             = 51
Number of equality constraint evaluations            = 58
Number of inequality constraint evaluations          = 58
Number of equality constraint Jacobian evaluations   = 52
Number of inequality constraint Jacobian evaluations = 52
Number of Lagrangian Hessian evaluations             = 50
Total CPU secs in IPOPT (w/o function evaluations)   =    109.709
Total CPU secs in NLP function evaluations           =      1.922

EXIT: Optimal Solution Found.
